db/data/17305136289825677888032217209738499.z3.out
-------------------
2500.102780275
